words_hard_train/3691.qaiger
aag 123 20 0 1 103
2
4
8
16
28
36
48
56
68
86
104
124
138
140
162
174
186
194
204
226
247
6 2 4
10 4 8
12 5 9
14 11 13
18 15 17
20 14 16
22 19 21
24 6 22
26 25 21
30 13 28
32 12 29
34 31 33
38 35 37
40 34 36
42 39 41
44 27 42
46 45 41
50 33 48
52 32 49
54 51 53
58 55 57
60 54 56
62 59 61
64 47 62
66 65 61
70 53 68
72 52 69
74 71 73
76 75 57
78 74 56
80 77 79
82 67 80
84 83 79
88 73 86
90 72 87
92 89 91
94 93 57
96 92 56
98 95 97
100 85 98
102 101 97
106 90 105
108 91 104
110 107 109
112 111 57
114 110 56
116 113 115
118 102 117
120 103 116
122 119 121
126 122 125
128 123 124
130 127 129
132 107 57
134 106 56
136 133 135
142 138 140
144 139 141
146 143 145
148 136 147
150 137 146
152 149 151
154 121 115
156 152 154
158 84 99
160 159 101
164 160 163
166 161 162
168 165 167
170 66 81
172 171 83
176 173 174
178 172 175
180 177 179
182 26 43
184 183 45
188 184 187
190 7 23
192 191 25
196 193 194
198 189 197
200 3 5
202 201 7
206 203 205
208 202 204
210 207 209
212 185 186
214 211 213
216 192 195
218 214 217
220 198 218
222 46 63
224 223 65
228 225 226
230 224 227
232 229 231
234 220 232
236 180 234
238 168 236
240 157 238
242 130 240
244 153 155
246 242 245
i0 1 x1[4]
i1 2 y2[0]
i2 2 y2[1]
i3 1 x1[5]
i4 2 y2[2]
i5 1 x1[6]
i6 2 y2[3]
i7 1 x1[7]
i8 2 y2[4]
i9 2 y2[5]
i10 2 y2[6]
i11 2 y1[6]
i12 2 y2[7]
i13 2 y1[7]
i14 2 y1[5]
i15 2 y1[4]
i16 2 y1[2]
i17 2 y1[1]
i18 2 y1[0]
i19 2 y1[3]
o0 bool[0]
c
simplified
  !=
    or
      2 y1
      2 y1
    subtract
      >> 4
        1 x1
      2 y2
