words_hard_train/3691.qaiger.qdimacs
p cnf 123 310
a 8 1 18 28 0
e 2 3 4 5 6 7 9 10 11 12 13 14 15 16 17 19 20 21 22 23 24 25 26 27 29 30 31 32 33 34 35 36 37 38 39 40 41 42 43 44 45 46 47 48 49 50 51 52 53 54 55 56 57 58 59 60 61 62 63 64 65 66 67 68 69 70 71 72 73 74 75 76 77 78 79 80 81 82 83 84 85 86 87 88 89 90 91 92 93 94 95 96 97 98 99 100 101 102 103 104 105 106 107 108 109 110 111 112 113 114 115 116 117 118 119 120 121 122 123 0
-1 -2 3 0
1 -3 0
2 -3 0
-2 -4 5 0
2 -5 0
4 -5 0
2 4 6 0
-2 -6 0
-4 -6 0
5 6 7 0
-5 -7 0
-6 -7 0
7 8 9 0
-7 -9 0
-8 -9 0
-7 -8 10 0
7 -10 0
8 -10 0
9 10 11 0
-9 -11 0
-10 -11 0
-3 -11 12 0
3 -12 0
11 -12 0
12 10 13 0
-12 -13 0
-10 -13 0
6 -14 15 0
-6 -15 0
14 -15 0
-6 14 16 0
6 -16 0
-14 -16 0
15 16 17 0
-15 -17 0
-16 -17 0
17 18 19 0
-17 -19 0
-18 -19 0
-17 -18 20 0
17 -20 0
18 -20 0
19 20 21 0
-19 -21 0
-20 -21 0
13 -21 22 0
-13 -22 0
21 -22 0
22 20 23 0
-22 -23 0
-20 -23 0
16 -24 25 0
-16 -25 0
24 -25 0
-16 24 26 0
16 -26 0
-24 -26 0
25 26 27 0
-25 -27 0
-26 -27 0
27 28 29 0
-27 -29 0
-28 -29 0
-27 -28 30 0
27 -30 0
28 -30 0
29 30 31 0
-29 -31 0
-30 -31 0
23 -31 32 0
-23 -32 0
31 -32 0
32 30 33 0
-32 -33 0
-30 -33 0
26 -34 35 0
-26 -35 0
34 -35 0
-26 34 36 0
26 -36 0
-34 -36 0
35 36 37 0
-35 -37 0
-36 -37 0
37 28 38 0
-37 -38 0
-28 -38 0
-37 -28 39 0
37 -39 0
28 -39 0
38 39 40 0
-38 -40 0
-39 -40 0
33 -40 41 0
-33 -41 0
40 -41 0
41 39 42 0
-41 -42 0
-39 -42 0
36 -43 44 0
-36 -44 0
43 -44 0
-36 43 45 0
36 -45 0
-43 -45 0
44 45 46 0
-44 -46 0
-45 -46 0
46 28 47 0
-46 -47 0
-28 -47 0
-46 -28 48 0
46 -48 0
28 -48 0
47 48 49 0
-47 -49 0
-48 -49 0
42 -49 50 0
-42 -50 0
49 -50 0
50 48 51 0
-50 -51 0
-48 -51 0
-45 52 53 0
45 -53 0
-52 -53 0
45 -52 54 0
-45 -54 0
52 -54 0
53 54 55 0
-53 -55 0
-54 -55 0
55 28 56 0
-55 -56 0
-28 -56 0
-55 -28 57 0
55 -57 0
28 -57 0
56 57 58 0
-56 -58 0
-57 -58 0
-51 58 59 0
51 -59 0
-58 -59 0
51 -58 60 0
-51 -60 0
58 -60 0
59 60 61 0
-59 -61 0
-60 -61 0
-61 62 63 0
61 -63 0
-62 -63 0
61 -62 64 0
-61 -64 0
62 -64 0
63 64 65 0
-63 -65 0
-64 -65 0
53 28 66 0
-53 -66 0
-28 -66 0
-53 -28 67 0
53 -67 0
28 -67 0
66 67 68 0
-66 -68 0
-67 -68 0
-69 -70 71 0
69 -71 0
70 -71 0
69 70 72 0
-69 -72 0
-70 -72 0
71 72 73 0
-71 -73 0
-72 -73 0
-68 73 74 0
68 -74 0
-73 -74 0
68 -73 75 0
-68 -75 0
73 -75 0
74 75 76 0
-74 -76 0
-75 -76 0
60 57 77 0
-60 -77 0
-57 -77 0
-76 -77 78 0
76 -78 0
77 -78 0
-42 49 79 0
42 -79 0
-49 -79 0
79 50 80 0
-79 -80 0
-50 -80 0
-80 81 82 0
80 -82 0
-81 -82 0
80 -81 83 0
-80 -83 0
81 -83 0
82 83 84 0
-82 -84 0
-83 -84 0
-33 40 85 0
33 -85 0
-40 -85 0
85 41 86 0
-85 -86 0
-41 -86 0
86 -87 88 0
-86 -88 0
87 -88 0
-86 87 89 0
86 -89 0
-87 -89 0
88 89 90 0
-88 -90 0
-89 -90 0
-13 21 91 0
13 -91 0
-21 -91 0
91 22 92 0
-91 -92 0
-22 -92 0
-92 93 94 0
92 -94 0
-93 -94 0
3 11 95 0
-3 -95 0
-11 -95 0
95 12 96 0
-95 -96 0
-12 -96 0
96 -97 98 0
-96 -98 0
97 -98 0
94 98 99 0
-94 -99 0
-98 -99 0
1 2 100 0
-1 -100 0
-2 -100 0
100 3 101 0
-100 -101 0
-3 -101 0
101 102 103 0
-101 -103 0
-102 -103 0
-101 -102 104 0
101 -104 0
102 -104 0
103 104 105 0
-103 -105 0
-104 -105 0
92 -93 106 0
-92 -106 0
93 -106 0
105 106 107 0
-105 -107 0
-106 -107 0
-96 97 108 0
96 -108 0
-97 -108 0
-107 108 109 0
107 -109 0
-108 -109 0
-99 -109 110 0
99 -110 0
109 -110 0
-23 31 111 0
23 -111 0
-31 -111 0
111 32 112 0
-111 -112 0
-32 -112 0
112 -113 114 0
-112 -114 0
113 -114 0
-112 113 115 0
112 -115 0
-113 -115 0
114 115 116 0
-114 -116 0
-115 -116 0
-110 -116 117 0
110 -117 0
116 -117 0
-90 -117 118 0
90 -118 0
117 -118 0
-84 -118 119 0
84 -119 0
118 -119 0
78 -119 120 0
-78 -120 0
119 -120 0
-65 -120 121 0
65 -121 0
120 -121 0
76 77 122 0
-76 -122 0
-77 -122 0
-121 122 123 0
121 -123 0
-122 -123 0
-123 0
